c File: flat150_3_0.col
c
c SOURCE: Joseph Culberson (joe@cs.ualberta.ca)
c DESCRIPTION: Quasi-random coloring problem
c              generated with flatness = 0
c                             probability = 0.048
c                             known coloring = 3
c                             random seed = 1084
c              Creation Date:  Wed Feb 24 10:37:49 1999
c Maximum degree = 8 Minimum degree = 1
c COLOR VERIFICATION: Using the permuted order
c under simple greedy yields the specified
c coloring number
c Color = 3 specified partitions = 3
c p edge 150 360
c cnf created by edge2cnf
p cnf 450 1680
-1 -2 0
-1 -3 0
-2 -3 0
1 2 3 0
-4 -5 0
-4 -6 0
-5 -6 0
4 5 6 0
-7 -8 0
-7 -9 0
-8 -9 0
7 8 9 0
-10 -11 0
-10 -12 0
-11 -12 0
10 11 12 0
-13 -14 0
-13 -15 0
-14 -15 0
13 14 15 0
-16 -17 0
-16 -18 0
-17 -18 0
16 17 18 0
-19 -20 0
-19 -21 0
-20 -21 0
19 20 21 0
-22 -23 0
-22 -24 0
-23 -24 0
22 23 24 0
-25 -26 0
-25 -27 0
-26 -27 0
25 26 27 0
-28 -29 0
-28 -30 0
-29 -30 0
28 29 30 0
-31 -32 0
-31 -33 0
-32 -33 0
31 32 33 0
-34 -35 0
-34 -36 0
-35 -36 0
34 35 36 0
-37 -38 0
-37 -39 0
-38 -39 0
37 38 39 0
-40 -41 0
-40 -42 0
-41 -42 0
40 41 42 0
-43 -44 0
-43 -45 0
-44 -45 0
43 44 45 0
-46 -47 0
-46 -48 0
-47 -48 0
46 47 48 0
-49 -50 0
-49 -51 0
-50 -51 0
49 50 51 0
-52 -53 0
-52 -54 0
-53 -54 0
52 53 54 0
-55 -56 0
-55 -57 0
-56 -57 0
55 56 57 0
-58 -59 0
-58 -60 0
-59 -60 0
58 59 60 0
-61 -62 0
-61 -63 0
-62 -63 0
61 62 63 0
-64 -65 0
-64 -66 0
-65 -66 0
64 65 66 0
-67 -68 0
-67 -69 0
-68 -69 0
67 68 69 0
-70 -71 0
-70 -72 0
-71 -72 0
70 71 72 0
-73 -74 0
-73 -75 0
-74 -75 0
73 74 75 0
-76 -77 0
-76 -78 0
-77 -78 0
76 77 78 0
-79 -80 0
-79 -81 0
-80 -81 0
79 80 81 0
-82 -83 0
-82 -84 0
-83 -84 0
82 83 84 0
-85 -86 0
-85 -87 0
-86 -87 0
85 86 87 0
-88 -89 0
-88 -90 0
-89 -90 0
88 89 90 0
-91 -92 0
-91 -93 0
-92 -93 0
91 92 93 0
-94 -95 0
-94 -96 0
-95 -96 0
94 95 96 0
-97 -98 0
-97 -99 0
-98 -99 0
97 98 99 0
-100 -101 0
-100 -102 0
-101 -102 0
100 101 102 0
-103 -104 0
-103 -105 0
-104 -105 0
103 104 105 0
-106 -107 0
-106 -108 0
-107 -108 0
106 107 108 0
-109 -110 0
-109 -111 0
-110 -111 0
109 110 111 0
-112 -113 0
-112 -114 0
-113 -114 0
112 113 114 0
-115 -116 0
-115 -117 0
-116 -117 0
115 116 117 0
-118 -119 0
-118 -120 0
-119 -120 0
118 119 120 0
-121 -122 0
-121 -123 0
-122 -123 0
121 122 123 0
-124 -125 0
-124 -126 0
-125 -126 0
124 125 126 0
-127 -128 0
-127 -129 0
-128 -129 0
127 128 129 0
-130 -131 0
-130 -132 0
-131 -132 0
130 131 132 0
-133 -134 0
-133 -135 0
-134 -135 0
133 134 135 0
-136 -137 0
-136 -138 0
-137 -138 0
136 137 138 0
-139 -140 0
-139 -141 0
-140 -141 0
139 140 141 0
-142 -143 0
-142 -144 0
-143 -144 0
142 143 144 0
-145 -146 0
-145 -147 0
-146 -147 0
145 146 147 0
-148 -149 0
-148 -150 0
-149 -150 0
148 149 150 0
-151 -152 0
-151 -153 0
-152 -153 0
151 152 153 0
-154 -155 0
-154 -156 0
-155 -156 0
154 155 156 0
-157 -158 0
-157 -159 0
-158 -159 0
157 158 159 0
-160 -161 0
-160 -162 0
-161 -162 0
160 161 162 0
-163 -164 0
-163 -165 0
-164 -165 0
163 164 165 0
-166 -167 0
-166 -168 0
-167 -168 0
166 167 168 0
-169 -170 0
-169 -171 0
-170 -171 0
169 170 171 0
-172 -173 0
-172 -174 0
-173 -174 0
172 173 174 0
-175 -176 0
-175 -177 0
-176 -177 0
175 176 177 0
-178 -179 0
-178 -180 0
-179 -180 0
178 179 180 0
-181 -182 0
-181 -183 0
-182 -183 0
181 182 183 0
-184 -185 0
-184 -186 0
-185 -186 0
184 185 186 0
-187 -188 0
-187 -189 0
-188 -189 0
187 188 189 0
-190 -191 0
-190 -192 0
-191 -192 0
190 191 192 0
-193 -194 0
-193 -195 0
-194 -195 0
193 194 195 0
-196 -197 0
-196 -198 0
-197 -198 0
196 197 198 0
-199 -200 0
-199 -201 0
-200 -201 0
199 200 201 0
-202 -203 0
-202 -204 0
-203 -204 0
202 203 204 0
-205 -206 0
-205 -207 0
-206 -207 0
205 206 207 0
-208 -209 0
-208 -210 0
-209 -210 0
208 209 210 0
-211 -212 0
-211 -213 0
-212 -213 0
211 212 213 0
-214 -215 0
-214 -216 0
-215 -216 0
214 215 216 0
-217 -218 0
-217 -219 0
-218 -219 0
217 218 219 0
-220 -221 0
-220 -222 0
-221 -222 0
220 221 222 0
-223 -224 0
-223 -225 0
-224 -225 0
223 224 225 0
-226 -227 0
-226 -228 0
-227 -228 0
226 227 228 0
-229 -230 0
-229 -231 0
-230 -231 0
229 230 231 0
-232 -233 0
-232 -234 0
-233 -234 0
232 233 234 0
-235 -236 0
-235 -237 0
-236 -237 0
235 236 237 0
-238 -239 0
-238 -240 0
-239 -240 0
238 239 240 0
-241 -242 0
-241 -243 0
-242 -243 0
241 242 243 0
-244 -245 0
-244 -246 0
-245 -246 0
244 245 246 0
-247 -248 0
-247 -249 0
-248 -249 0
247 248 249 0
-250 -251 0
-250 -252 0
-251 -252 0
250 251 252 0
-253 -254 0
-253 -255 0
-254 -255 0
253 254 255 0
-256 -257 0
-256 -258 0
-257 -258 0
256 257 258 0
-259 -260 0
-259 -261 0
-260 -261 0
259 260 261 0
-262 -263 0
-262 -264 0
-263 -264 0
262 263 264 0
-265 -266 0
-265 -267 0
-266 -267 0
265 266 267 0
-268 -269 0
-268 -270 0
-269 -270 0
268 269 270 0
-271 -272 0
-271 -273 0
-272 -273 0
271 272 273 0
-274 -275 0
-274 -276 0
-275 -276 0
274 275 276 0
-277 -278 0
-277 -279 0
-278 -279 0
277 278 279 0
-280 -281 0
-280 -282 0
-281 -282 0
280 281 282 0
-283 -284 0
-283 -285 0
-284 -285 0
283 284 285 0
-286 -287 0
-286 -288 0
-287 -288 0
286 287 288 0
-289 -290 0
-289 -291 0
-290 -291 0
289 290 291 0
-292 -293 0
-292 -294 0
-293 -294 0
292 293 294 0
-295 -296 0
-295 -297 0
-296 -297 0
295 296 297 0
-298 -299 0
-298 -300 0
-299 -300 0
298 299 300 0
-301 -302 0
-301 -303 0
-302 -303 0
301 302 303 0
-304 -305 0
-304 -306 0
-305 -306 0
304 305 306 0
-307 -308 0
-307 -309 0
-308 -309 0
307 308 309 0
-310 -311 0
-310 -312 0
-311 -312 0
310 311 312 0
-313 -314 0
-313 -315 0
-314 -315 0
313 314 315 0
-316 -317 0
-316 -318 0
-317 -318 0
316 317 318 0
-319 -320 0
-319 -321 0
-320 -321 0
319 320 321 0
-322 -323 0
-322 -324 0
-323 -324 0
322 323 324 0
-325 -326 0
-325 -327 0
-326 -327 0
325 326 327 0
-328 -329 0
-328 -330 0
-329 -330 0
328 329 330 0
-331 -332 0
-331 -333 0
-332 -333 0
331 332 333 0
-334 -335 0
-334 -336 0
-335 -336 0
334 335 336 0
-337 -338 0
-337 -339 0
-338 -339 0
337 338 339 0
-340 -341 0
-340 -342 0
-341 -342 0
340 341 342 0
-343 -344 0
-343 -345 0
-344 -345 0
343 344 345 0
-346 -347 0
-346 -348 0
-347 -348 0
346 347 348 0
-349 -350 0
-349 -351 0
-350 -351 0
349 350 351 0
-352 -353 0
-352 -354 0
-353 -354 0
352 353 354 0
-355 -356 0
-355 -357 0
-356 -357 0
355 356 357 0
-358 -359 0
-358 -360 0
-359 -360 0
358 359 360 0
-361 -362 0
-361 -363 0
-362 -363 0
361 362 363 0
-364 -365 0
-364 -366 0
-365 -366 0
364 365 366 0
-367 -368 0
-367 -369 0
-368 -369 0
367 368 369 0
-370 -371 0
-370 -372 0
-371 -372 0
370 371 372 0
-373 -374 0
-373 -375 0
-374 -375 0
373 374 375 0
-376 -377 0
-376 -378 0
-377 -378 0
376 377 378 0
-379 -380 0
-379 -381 0
-380 -381 0
379 380 381 0
-382 -383 0
-382 -384 0
-383 -384 0
382 383 384 0
-385 -386 0
-385 -387 0
-386 -387 0
385 386 387 0
-388 -389 0
-388 -390 0
-389 -390 0
388 389 390 0
-391 -392 0
-391 -393 0
-392 -393 0
391 392 393 0
-394 -395 0
-394 -396 0
-395 -396 0
394 395 396 0
-397 -398 0
-397 -399 0
-398 -399 0
397 398 399 0
-400 -401 0
-400 -402 0
-401 -402 0
400 401 402 0
-403 -404 0
-403 -405 0
-404 -405 0
403 404 405 0
-406 -407 0
-406 -408 0
-407 -408 0
406 407 408 0
-409 -410 0
-409 -411 0
-410 -411 0
409 410 411 0
-412 -413 0
-412 -414 0
-413 -414 0
412 413 414 0
-415 -416 0
-415 -417 0
-416 -417 0
415 416 417 0
-418 -419 0
-418 -420 0
-419 -420 0
418 419 420 0
-421 -422 0
-421 -423 0
-422 -423 0
421 422 423 0
-424 -425 0
-424 -426 0
-425 -426 0
424 425 426 0
-427 -428 0
-427 -429 0
-428 -429 0
427 428 429 0
-430 -431 0
-430 -432 0
-431 -432 0
430 431 432 0
-433 -434 0
-433 -435 0
-434 -435 0
433 434 435 0
-436 -437 0
-436 -438 0
-437 -438 0
436 437 438 0
-439 -440 0
-439 -441 0
-440 -441 0
439 440 441 0
-442 -443 0
-442 -444 0
-443 -444 0
442 443 444 0
-445 -446 0
-445 -447 0
-446 -447 0
445 446 447 0
-448 -449 0
-448 -450 0
-449 -450 0
448 449 450 0
-100 -1 0
-101 -2 0
-102 -3 0
-109 -1 0
-110 -2 0
-111 -3 0
-112 -1 0
-113 -2 0
-114 -3 0
-118 -1 0
-119 -2 0
-120 -3 0
-184 -1 0
-185 -2 0
-186 -3 0
-412 -1 0
-413 -2 0
-414 -3 0
-436 -1 0
-437 -2 0
-438 -3 0
-40 -4 0
-41 -5 0
-42 -6 0
-130 -4 0
-131 -5 0
-132 -6 0
-148 -4 0
-149 -5 0
-150 -6 0
-211 -4 0
-212 -5 0
-213 -6 0
-316 -4 0
-317 -5 0
-318 -6 0
-346 -4 0
-347 -5 0
-348 -6 0
-385 -4 0
-386 -5 0
-387 -6 0
-13 -7 0
-14 -8 0
-15 -9 0
-16 -7 0
-17 -8 0
-18 -9 0
-58 -7 0
-59 -8 0
-60 -9 0
-115 -7 0
-116 -8 0
-117 -9 0
-304 -7 0
-305 -8 0
-306 -9 0
-136 -10 0
-137 -11 0
-138 -12 0
-148 -10 0
-149 -11 0
-150 -12 0
-205 -10 0
-206 -11 0
-207 -12 0
-286 -10 0
-287 -11 0
-288 -12 0
-361 -10 0
-362 -11 0
-363 -12 0
-394 -10 0
-395 -11 0
-396 -12 0
-82 -13 0
-83 -14 0
-84 -15 0
-127 -13 0
-128 -14 0
-129 -15 0
-238 -13 0
-239 -14 0
-240 -15 0
-61 -16 0
-62 -17 0
-63 -18 0
-127 -16 0
-128 -17 0
-129 -18 0
-145 -16 0
-146 -17 0
-147 -18 0
-292 -16 0
-293 -17 0
-294 -18 0
-322 -16 0
-323 -17 0
-324 -18 0
-382 -16 0
-383 -17 0
-384 -18 0
-439 -16 0
-440 -17 0
-441 -18 0
-214 -19 0
-215 -20 0
-216 -21 0
-220 -19 0
-221 -20 0
-222 -21 0
-226 -19 0
-227 -20 0
-228 -21 0
-277 -19 0
-278 -20 0
-279 -21 0
-304 -19 0
-305 -20 0
-306 -21 0
-379 -19 0
-380 -20 0
-381 -21 0
-214 -22 0
-215 -23 0
-216 -24 0
-217 -22 0
-218 -23 0
-219 -24 0
-235 -22 0
-236 -23 0
-237 -24 0
-82 -25 0
-83 -26 0
-84 -27 0
-316 -25 0
-317 -26 0
-318 -27 0
-112 -28 0
-113 -29 0
-114 -30 0
-217 -28 0
-218 -29 0
-219 -30 0
-232 -28 0
-233 -29 0
-234 -30 0
-235 -28 0
-236 -29 0
-237 -30 0
-325 -28 0
-326 -29 0
-327 -30 0
-361 -28 0
-362 -29 0
-363 -30 0
-160 -31 0
-161 -32 0
-162 -33 0
-349 -31 0
-350 -32 0
-351 -33 0
-418 -31 0
-419 -32 0
-420 -33 0
-259 -34 0
-260 -35 0
-261 -36 0
-304 -34 0
-305 -35 0
-306 -36 0
-355 -34 0
-356 -35 0
-357 -36 0
-373 -34 0
-374 -35 0
-375 -36 0
-421 -34 0
-422 -35 0
-423 -36 0
-442 -34 0
-443 -35 0
-444 -36 0
-124 -37 0
-125 -38 0
-126 -39 0
-133 -37 0
-134 -38 0
-135 -39 0
-166 -37 0
-167 -38 0
-168 -39 0
-169 -37 0
-170 -38 0
-171 -39 0
-316 -37 0
-317 -38 0
-318 -39 0
-328 -37 0
-329 -38 0
-330 -39 0
-352 -37 0
-353 -38 0
-354 -39 0
-421 -37 0
-422 -38 0
-423 -39 0
-124 -40 0
-125 -41 0
-126 -42 0
-160 -40 0
-161 -41 0
-162 -42 0
-220 -40 0
-221 -41 0
-222 -42 0
-343 -40 0
-344 -41 0
-345 -42 0
-382 -40 0
-383 -41 0
-384 -42 0
-124 -43 0
-125 -44 0
-126 -45 0
-133 -43 0
-134 -44 0
-135 -45 0
-136 -43 0
-137 -44 0
-138 -45 0
-160 -43 0
-161 -44 0
-162 -45 0
-280 -43 0
-281 -44 0
-282 -45 0
-355 -43 0
-356 -44 0
-357 -45 0
-118 -46 0
-119 -47 0
-120 -48 0
-154 -46 0
-155 -47 0
-156 -48 0
-184 -46 0
-185 -47 0
-186 -48 0
-208 -46 0
-209 -47 0
-210 -48 0
-211 -46 0
-212 -47 0
-213 -48 0
-55 -49 0
-56 -50 0
-57 -51 0
-109 -49 0
-110 -50 0
-111 -51 0
-370 -49 0
-371 -50 0
-372 -51 0
-70 -52 0
-71 -53 0
-72 -54 0
-160 -52 0
-161 -53 0
-162 -54 0
-235 -52 0
-236 -53 0
-237 -54 0
-256 -52 0
-257 -53 0
-258 -54 0
-136 -55 0
-137 -56 0
-138 -57 0
-235 -55 0
-236 -56 0
-237 -57 0
-271 -55 0
-272 -56 0
-273 -57 0
-355 -55 0
-356 -56 0
-357 -57 0
-397 -55 0
-398 -56 0
-399 -57 0
-436 -55 0
-437 -56 0
-438 -57 0
-448 -55 0
-449 -56 0
-450 -57 0
-61 -58 0
-62 -59 0
-63 -60 0
-112 -58 0
-113 -59 0
-114 -60 0
-136 -58 0
-137 -59 0
-138 -60 0
-217 -58 0
-218 -59 0
-219 -60 0
-367 -58 0
-368 -59 0
-369 -60 0
-160 -61 0
-161 -62 0
-162 -63 0
-235 -61 0
-236 -62 0
-237 -63 0
-217 -64 0
-218 -65 0
-219 -66 0
-307 -64 0
-308 -65 0
-309 -66 0
-427 -64 0
-428 -65 0
-429 -66 0
-439 -64 0
-440 -65 0
-441 -66 0
-91 -67 0
-92 -68 0
-93 -69 0
-250 -67 0
-251 -68 0
-252 -69 0
-295 -67 0
-296 -68 0
-297 -69 0
-292 -70 0
-293 -71 0
-294 -72 0
-379 -70 0
-380 -71 0
-381 -72 0
-409 -70 0
-410 -71 0
-411 -72 0
-169 -73 0
-170 -74 0
-171 -75 0
-280 -73 0
-281 -74 0
-282 -75 0
-97 -76 0
-98 -77 0
-99 -78 0
-202 -76 0
-203 -77 0
-204 -78 0
-256 -76 0
-257 -77 0
-258 -78 0
-313 -76 0
-314 -77 0
-315 -78 0
-199 -79 0
-200 -80 0
-201 -81 0
-289 -79 0
-290 -80 0
-291 -81 0
-346 -79 0
-347 -80 0
-348 -81 0
-358 -79 0
-359 -80 0
-360 -81 0
-364 -79 0
-365 -80 0
-366 -81 0
-370 -79 0
-371 -80 0
-372 -81 0
-133 -82 0
-134 -83 0
-135 -84 0
-166 -82 0
-167 -83 0
-168 -84 0
-220 -82 0
-221 -83 0
-222 -84 0
-271 -82 0
-272 -83 0
-273 -84 0
-313 -85 0
-314 -86 0
-315 -87 0
-337 -85 0
-338 -86 0
-339 -87 0
-241 -88 0
-242 -89 0
-243 -90 0
-256 -88 0
-257 -89 0
-258 -90 0
-340 -88 0
-341 -89 0
-342 -90 0
-376 -88 0
-377 -89 0
-378 -90 0
-433 -88 0
-434 -89 0
-435 -90 0
-151 -91 0
-152 -92 0
-153 -93 0
-163 -91 0
-164 -92 0
-165 -93 0
-166 -91 0
-167 -92 0
-168 -93 0
-199 -91 0
-200 -92 0
-201 -93 0
-361 -91 0
-362 -92 0
-363 -93 0
-376 -91 0
-377 -92 0
-378 -93 0
-121 -94 0
-122 -95 0
-123 -96 0
-127 -94 0
-128 -95 0
-129 -96 0
-139 -94 0
-140 -95 0
-141 -96 0
-445 -94 0
-446 -95 0
-447 -96 0
-403 -97 0
-404 -98 0
-405 -99 0
-448 -97 0
-449 -98 0
-450 -99 0
-202 -100 0
-203 -101 0
-204 -102 0
-280 -100 0
-281 -101 0
-282 -102 0
-328 -103 0
-329 -104 0
-330 -105 0
-403 -103 0
-404 -104 0
-405 -105 0
-421 -103 0
-422 -104 0
-423 -105 0
-124 -106 0
-125 -107 0
-126 -108 0
-169 -106 0
-170 -107 0
-171 -108 0
-202 -106 0
-203 -107 0
-204 -108 0
-253 -106 0
-254 -107 0
-255 -108 0
-268 -106 0
-269 -107 0
-270 -108 0
-391 -106 0
-392 -107 0
-393 -108 0
-397 -106 0
-398 -107 0
-399 -108 0
-400 -106 0
-401 -107 0
-402 -108 0
-166 -109 0
-167 -110 0
-168 -111 0
-223 -109 0
-224 -110 0
-225 -111 0
-235 -109 0
-236 -110 0
-237 -111 0
-277 -109 0
-278 -110 0
-279 -111 0
-298 -109 0
-299 -110 0
-300 -111 0
-355 -112 0
-356 -113 0
-357 -114 0
-310 -115 0
-311 -116 0
-312 -117 0
-358 -115 0
-359 -116 0
-360 -117 0
-406 -115 0
-407 -116 0
-408 -117 0
-223 -118 0
-224 -119 0
-225 -120 0
-385 -118 0
-386 -119 0
-387 -120 0
-277 -121 0
-278 -122 0
-279 -123 0
-280 -124 0
-281 -125 0
-282 -126 0
-334 -124 0
-335 -125 0
-336 -126 0
-196 -127 0
-197 -128 0
-198 -129 0
-307 -127 0
-308 -128 0
-309 -129 0
-316 -127 0
-317 -128 0
-318 -129 0
-364 -127 0
-365 -128 0
-366 -129 0
-436 -127 0
-437 -128 0
-438 -129 0
-175 -130 0
-176 -131 0
-177 -132 0
-310 -130 0
-311 -131 0
-312 -132 0
-394 -130 0
-395 -131 0
-396 -132 0
-391 -133 0
-392 -134 0
-393 -135 0
-160 -136 0
-161 -137 0
-162 -138 0
-271 -136 0
-272 -137 0
-273 -138 0
-178 -139 0
-179 -140 0
-180 -141 0
-232 -139 0
-233 -140 0
-234 -141 0
-274 -139 0
-275 -140 0
-276 -141 0
-319 -139 0
-320 -140 0
-321 -141 0
-379 -139 0
-380 -140 0
-381 -141 0
-412 -139 0
-413 -140 0
-414 -141 0
-442 -139 0
-443 -140 0
-444 -141 0
-232 -142 0
-233 -143 0
-234 -144 0
-277 -142 0
-278 -143 0
-279 -144 0
-304 -142 0
-305 -143 0
-306 -144 0
-340 -142 0
-341 -143 0
-342 -144 0
-400 -142 0
-401 -143 0
-402 -144 0
-421 -142 0
-422 -143 0
-423 -144 0
-151 -145 0
-152 -146 0
-153 -147 0
-178 -145 0
-179 -146 0
-180 -147 0
-244 -145 0
-245 -146 0
-246 -147 0
-448 -145 0
-449 -146 0
-450 -147 0
-244 -148 0
-245 -149 0
-246 -150 0
-334 -148 0
-335 -149 0
-336 -150 0
-379 -148 0
-380 -149 0
-381 -150 0
-265 -151 0
-266 -152 0
-267 -153 0
-322 -151 0
-323 -152 0
-324 -153 0
-346 -151 0
-347 -152 0
-348 -153 0
-397 -151 0
-398 -152 0
-399 -153 0
-400 -151 0
-401 -152 0
-402 -153 0
-274 -154 0
-275 -155 0
-276 -156 0
-316 -154 0
-317 -155 0
-318 -156 0
-328 -154 0
-329 -155 0
-330 -156 0
-370 -154 0
-371 -155 0
-372 -156 0
-421 -154 0
-422 -155 0
-423 -156 0
-337 -157 0
-338 -158 0
-339 -159 0
-190 -160 0
-191 -161 0
-192 -162 0
-286 -163 0
-287 -164 0
-288 -165 0
-346 -163 0
-347 -164 0
-348 -165 0
-376 -163 0
-377 -164 0
-378 -165 0
-445 -163 0
-446 -164 0
-447 -165 0
-211 -166 0
-212 -167 0
-213 -168 0
-259 -166 0
-260 -167 0
-261 -168 0
-433 -166 0
-434 -167 0
-435 -168 0
-241 -169 0
-242 -170 0
-243 -171 0
-253 -169 0
-254 -170 0
-255 -171 0
-415 -169 0
-416 -170 0
-417 -171 0
-211 -172 0
-212 -173 0
-213 -174 0
-238 -172 0
-239 -173 0
-240 -174 0
-256 -172 0
-257 -173 0
-258 -174 0
-280 -172 0
-281 -173 0
-282 -174 0
-298 -172 0
-299 -173 0
-300 -174 0
-361 -172 0
-362 -173 0
-363 -174 0
-199 -175 0
-200 -176 0
-201 -177 0
-223 -175 0
-224 -176 0
-225 -177 0
-241 -175 0
-242 -176 0
-243 -177 0
-343 -175 0
-344 -176 0
-345 -177 0
-418 -175 0
-419 -176 0
-420 -177 0
-205 -178 0
-206 -179 0
-207 -180 0
-223 -178 0
-224 -179 0
-225 -180 0
-280 -178 0
-281 -179 0
-282 -180 0
-256 -181 0
-257 -182 0
-258 -183 0
-259 -181 0
-260 -182 0
-261 -183 0
-301 -181 0
-302 -182 0
-303 -183 0
-436 -181 0
-437 -182 0
-438 -183 0
-196 -184 0
-197 -185 0
-198 -186 0
-205 -184 0
-206 -185 0
-207 -186 0
-217 -184 0
-218 -185 0
-219 -186 0
-268 -184 0
-269 -185 0
-270 -186 0
-409 -184 0
-410 -185 0
-411 -186 0
-430 -184 0
-431 -185 0
-432 -186 0
-190 -187 0
-191 -188 0
-192 -189 0
-220 -187 0
-221 -188 0
-222 -189 0
-295 -187 0
-296 -188 0
-297 -189 0
-439 -187 0
-440 -188 0
-441 -189 0
-205 -190 0
-206 -191 0
-207 -192 0
-256 -193 0
-257 -194 0
-258 -195 0
-277 -193 0
-278 -194 0
-279 -195 0
-424 -193 0
-425 -194 0
-426 -195 0
-223 -196 0
-224 -197 0
-225 -198 0
-238 -196 0
-239 -197 0
-240 -198 0
-295 -196 0
-296 -197 0
-297 -198 0
-316 -196 0
-317 -197 0
-318 -198 0
-385 -196 0
-386 -197 0
-387 -198 0
-367 -199 0
-368 -200 0
-369 -201 0
-373 -199 0
-374 -200 0
-375 -201 0
-442 -199 0
-443 -200 0
-444 -201 0
-346 -202 0
-347 -203 0
-348 -204 0
-385 -202 0
-386 -203 0
-387 -204 0
-418 -202 0
-419 -203 0
-420 -204 0
-214 -205 0
-215 -206 0
-216 -207 0
-259 -205 0
-260 -206 0
-261 -207 0
-271 -205 0
-272 -206 0
-273 -207 0
-343 -205 0
-344 -206 0
-345 -207 0
-322 -208 0
-323 -209 0
-324 -210 0
-226 -211 0
-227 -212 0
-228 -213 0
-370 -211 0
-371 -212 0
-372 -213 0
-376 -214 0
-377 -215 0
-378 -216 0
-289 -217 0
-290 -218 0
-291 -219 0
-352 -223 0
-353 -224 0
-354 -225 0
-262 -226 0
-263 -227 0
-264 -228 0
-298 -226 0
-299 -227 0
-300 -228 0
-406 -226 0
-407 -227 0
-408 -228 0
-427 -226 0
-428 -227 0
-429 -228 0
-349 -229 0
-350 -230 0
-351 -231 0
-433 -229 0
-434 -230 0
-435 -231 0
-448 -229 0
-449 -230 0
-450 -231 0
-274 -232 0
-275 -233 0
-276 -234 0
-385 -232 0
-386 -233 0
-387 -234 0
-262 -235 0
-263 -236 0
-264 -237 0
-412 -235 0
-413 -236 0
-414 -237 0
-304 -238 0
-305 -239 0
-306 -240 0
-313 -241 0
-314 -242 0
-315 -243 0
-421 -241 0
-422 -242 0
-423 -243 0
-277 -244 0
-278 -245 0
-279 -246 0
-364 -244 0
-365 -245 0
-366 -246 0
-391 -244 0
-392 -245 0
-393 -246 0
-433 -244 0
-434 -245 0
-435 -246 0
-301 -247 0
-302 -248 0
-303 -249 0
-253 -250 0
-254 -251 0
-255 -252 0
-271 -250 0
-272 -251 0
-273 -252 0
-301 -250 0
-302 -251 0
-303 -252 0
-400 -250 0
-401 -251 0
-402 -252 0
-322 -256 0
-323 -257 0
-324 -258 0
-301 -259 0
-302 -260 0
-303 -261 0
-340 -259 0
-341 -260 0
-342 -261 0
-385 -259 0
-386 -260 0
-387 -261 0
-409 -259 0
-410 -260 0
-411 -261 0
-295 -262 0
-296 -263 0
-297 -264 0
-334 -262 0
-335 -263 0
-336 -264 0
-391 -265 0
-392 -266 0
-393 -267 0
-295 -268 0
-296 -269 0
-297 -270 0
-331 -268 0
-332 -269 0
-333 -270 0
-415 -271 0
-416 -272 0
-417 -273 0
-289 -274 0
-290 -275 0
-291 -276 0
-343 -274 0
-344 -275 0
-345 -276 0
-370 -274 0
-371 -275 0
-372 -276 0
-364 -277 0
-365 -278 0
-366 -279 0
-364 -280 0
-365 -281 0
-366 -282 0
-310 -283 0
-311 -284 0
-312 -285 0
-358 -283 0
-359 -284 0
-360 -285 0
-313 -286 0
-314 -287 0
-315 -288 0
-334 -286 0
-335 -287 0
-336 -288 0
-364 -286 0
-365 -287 0
-366 -288 0
-319 -292 0
-320 -293 0
-321 -294 0
-391 -295 0
-392 -296 0
-393 -297 0
-406 -295 0
-407 -296 0
-408 -297 0
-328 -301 0
-329 -302 0
-330 -303 0
-355 -301 0
-356 -302 0
-357 -303 0
-331 -310 0
-332 -311 0
-333 -312 0
-397 -313 0
-398 -314 0
-399 -315 0
-403 -313 0
-404 -314 0
-405 -315 0
-400 -322 0
-401 -323 0
-402 -324 0
-388 -325 0
-389 -326 0
-390 -327 0
-421 -325 0
-422 -326 0
-423 -327 0
-373 -328 0
-374 -329 0
-375 -330 0
-400 -328 0
-401 -329 0
-402 -330 0
-436 -334 0
-437 -335 0
-438 -336 0
-379 -343 0
-380 -344 0
-381 -345 0
-385 -343 0
-386 -344 0
-387 -345 0
-442 -343 0
-443 -344 0
-444 -345 0
-427 -346 0
-428 -347 0
-429 -348 0
-433 -355 0
-434 -356 0
-435 -357 0
-403 -358 0
-404 -359 0
-405 -360 0
-445 -361 0
-446 -362 0
-447 -363 0
-397 -367 0
-398 -368 0
-399 -369 0
-382 -370 0
-383 -371 0
-384 -372 0
-445 -370 0
-446 -371 0
-447 -372 0
-397 -373 0
-398 -374 0
-399 -375 0
-397 -379 0
-398 -380 0
-399 -381 0
-448 -379 0
-449 -380 0
-450 -381 0
-400 -385 0
-401 -386 0
-402 -387 0
-442 -397 0
-443 -398 0
-444 -399 0
-421 -403 0
-422 -404 0
-423 -405 0
-433 -418 0
-434 -419 0
-435 -420 0
-436 -430 0
-437 -431 0
-438 -432 0
